60
1 0 6
2 0 11
2 1 10
3 0 6
3 1 11
3 2 9
4 0 6
4 1 7
4 2 8
4 3 12
5 0 11
5 1 6
5 2 13
5 3 1
5 4 7
6 0 10
6 1 9
6 2 1
6 3 10
6 4 3
6 5 12
7 0 6
7 1 10
7 2 3
7 3 6
7 4 7
7 5 7
7 6 11
8 0 8
8 1 12
8 2 9
8 3 4
8 4 2
8 5 7
8 6 2
8 7 6
9 0 4
9 1 8
9 2 2
9 3 13
9 4 3
9 5 4
9 6 2
9 7 3
9 8 3
10 0 11
10 1 11
10 2 3
10 3 4
10 4 13
10 5 1
10 6 1
10 7 5
10 8 6
10 9 3
11 0 4
11 1 13
11 2 3
11 3 4
11 4 12
11 5 11
11 6 13
11 7 11
11 8 1
11 9 5
11 10 5
12 0 7
12 1 8
12 2 13
12 3 2
12 4 6
12 5 6
12 6 3
12 7 6
12 8 6
12 9 10
12 10 5
12 11 8
13 0 6
13 1 6
13 2 11
13 3 3
13 4 10
13 5 3
13 6 5
13 7 7
13 8 1
13 9 6
13 10 3
13 11 4
13 12 9
14 0 11
14 1 11
14 2 9
14 3 12
14 4 1
14 5 13
14 6 10
14 7 12
14 8 10
14 9 13
14 10 9
14 11 7
14 12 6
14 13 2
15 0 12
15 1 10
15 2 10
15 3 11
15 4 11
15 5 5
15 6 4
15 7 1
15 8 3
15 9 10
15 10 13
15 11 1
15 12 13
15 13 2
15 14 7
16 0 9
16 1 5
16 2 11
16 3 8
16 4 13
16 5 11
16 6 6
16 7 5
16 8 13
16 9 2
16 10 8
16 11 12
16 12 8
16 13 9
16 14 12
16 15 6
17 0 8
17 1 8
17 2 13
17 3 9
17 4 2
17 5 3
17 6 8
17 7 10
17 8 4
17 9 5
17 10 12
17 11 3
17 12 5
17 13 1
17 14 8
17 15 5
17 16 3
18 0 9
18 1 3
18 2 4
18 3 7
18 4 2
18 5 1
18 6 8
18 7 5
18 8 10
18 9 11
18 10 10
18 11 11
18 12 7
18 13 7
18 14 6
18 15 2
18 16 7
18 17 6
19 0 8
19 1 11
19 2 13
19 3 5
19 4 8
19 5 10
19 6 8
19 7 8
19 8 13
19 9 7
19 10 7
19 11 7
19 12 11
19 13 3
19 14 13
19 15 4
19 16 13
19 17 7
19 18 11
20 0 5
20 1 3
20 2 11
20 3 1
20 4 4
20 5 11
20 6 13
20 7 12
20 8 4
20 9 11
20 10 4
20 11 8
20 12 8
20 13 9
20 14 3
20 15 11
20 16 13
20 17 12
20 18 8
20 19 13
21 0 6
21 1 2
21 2 6
21 3 8
21 4 7
21 5 5
21 6 12
21 7 2
21 8 5
21 9 5
21 10 13
21 11 7
21 12 8
21 13 9
21 14 3
21 15 10
21 16 2
21 17 8
21 18 9
21 19 13
21 20 1
22 0 8
22 1 2
22 2 2
22 3 10
22 4 2
22 5 1
22 6 5
22 7 6
22 8 12
22 9 1
22 10 8
22 11 9
22 12 13
22 13 2
22 14 5
22 15 7
22 16 6
22 17 6
22 18 12
22 19 1
22 20 1
22 21 3
23 0 6
23 1 6
23 2 7
23 3 7
23 4 2
23 5 5
23 6 7
23 7 11
23 8 3
23 9 6
23 10 9
23 11 1
23 12 7
23 13 10
23 14 6
23 15 10
23 16 2
23 17 1
23 18 5
23 19 9
23 20 12
23 21 4
23 22 2
24 0 7
24 1 7
24 2 4
24 3 8
24 4 11
24 5 3
24 6 12
24 7 9
24 8 10
24 9 7
24 10 1
24 11 8
24 12 1
24 13 11
24 14 8
24 15 4
24 16 2
24 17 11
24 18 8
24 19 10
24 20 4
24 21 13
24 22 3
24 23 4
25 0 10
25 1 11
25 2 3
25 3 9
25 4 5
25 5 10
25 6 4
25 7 13
25 8 8
25 9 2
25 10 1
25 11 10
25 12 7
25 13 6
25 14 6
25 15 3
25 16 8
25 17 11
25 18 10
25 19 4
25 20 8
25 21 7
25 22 6
25 23 2
25 24 12
26 0 2
26 1 12
26 2 10
26 3 8
26 4 2
26 5 13
26 6 3
26 7 6
26 8 2
26 9 12
26 10 13
26 11 9
26 12 7
26 13 7
26 14 5
26 15 13
26 16 13
26 17 6
26 18 4
26 19 2
26 20 6
26 21 2
26 22 11
26 23 6
26 24 3
26 25 8
27 0 5
27 1 11
27 2 8
27 3 10
27 4 9
27 5 7
27 6 13
27 7 2
27 8 10
27 9 12
27 10 9
27 11 12
27 12 4
27 13 8
27 14 8
27 15 6
27 16 3
27 17 10
27 18 5
27 19 3
27 20 2
27 21 7
27 22 8
27 23 8
27 24 13
27 25 12
27 26 9
28 0 11
28 1 8
28 2 9
28 3 1
28 4 12
28 5 7
28 6 9
28 7 10
28 8 8
28 9 5
28 10 4
28 11 11
28 12 1
28 13 5
28 14 13
28 15 1
28 16 5
28 17 7
28 18 3
28 19 13
28 20 2
28 21 9
28 22 11
28 23 7
28 24 11
28 25 2
28 26 11
28 27 9
29 0 9
29 1 6
29 2 11
29 3 6
29 4 11
29 5 12
29 6 10
29 7 12
29 8 4
29 9 3
29 10 11
29 11 7
29 12 6
29 13 6
29 14 13
29 15 2
29 16 1
29 17 9
29 18 2
29 19 3
29 20 12
29 21 12
29 22 11
29 23 12
29 24 11
29 25 8
29 26 13
29 27 11
29 28 7
30 0 7
30 1 6
30 2 11
30 3 7
30 4 4
30 5 7
30 6 2
30 7 10
30 8 3
30 9 2
30 10 1
30 11 9
30 12 3
30 13 4
30 14 3
30 15 7
30 16 3
30 17 7
30 18 13
30 19 6
30 20 7
30 21 13
30 22 11
30 23 12
30 24 9
30 25 8
30 26 10
30 27 11
30 28 11
30 29 9
31 0 12
31 1 13
31 2 8
31 3 9
31 4 3
31 5 2
31 6 13
31 7 11
31 8 13
31 9 3
31 10 12
31 11 9
31 12 5
31 13 11
31 14 2
31 15 13
31 16 6
31 17 9
31 18 1
31 19 7
31 20 13
31 21 13
31 22 9
31 23 7
31 24 9
31 25 9
31 26 5
31 27 10
31 28 2
31 29 2
31 30 8
32 0 8
32 1 4
32 2 10
32 3 5
32 4 1
32 5 2
32 6 9
32 7 7
32 8 8
32 9 11
32 10 6
32 11 9
32 12 7
32 13 9
32 14 2
32 15 5
32 16 11
32 17 10
32 18 9
32 19 12
32 20 4
32 21 9
32 22 6
32 23 12
32 24 11
32 25 9
32 26 3
32 27 1
32 28 4
32 29 10
32 30 10
32 31 13
33 0 1
33 1 4
33 2 6
33 3 4
33 4 6
33 5 11
33 6 10
33 7 11
33 8 13
33 9 8
33 10 13
33 11 3
33 12 5
33 13 9
33 14 13
33 15 7
33 16 9
33 17 3
33 18 5
33 19 12
33 20 11
33 21 4
33 22 4
33 23 2
33 24 7
33 25 9
33 26 10
33 27 4
33 28 6
33 29 9
33 30 5
33 31 10
33 32 11
34 0 11
34 1 10
34 2 13
34 3 2
34 4 13
34 5 9
34 6 10
34 7 8
34 8 4
34 9 5
34 10 2
34 11 9
34 12 6
34 13 11
34 14 2
34 15 9
34 16 3
34 17 12
34 18 1
34 19 6
34 20 7
34 21 5
34 22 9
34 23 6
34 24 6
34 25 11
34 26 10
34 27 10
34 28 5
34 29 3
34 30 13
34 31 10
34 32 9
34 33 9
35 0 8
35 1 11
35 2 7
35 3 1
35 4 8
35 5 10
35 6 2
35 7 7
35 8 4
35 9 12
35 10 3
35 11 3
35 12 4
35 13 8
35 14 1
35 15 10
35 16 1
35 17 5
35 18 11
35 19 7
35 20 6
35 21 8
35 22 12
35 23 4
35 24 10
35 25 3
35 26 2
35 27 6
35 28 6
35 29 8
35 30 7
35 31 10
35 32 11
35 33 3
35 34 2
36 0 10
36 1 8
36 2 7
36 3 9
36 4 12
36 5 9
36 6 6
36 7 12
36 8 5
36 9 5
36 10 5
36 11 8
36 12 12
36 13 8
36 14 5
36 15 7
36 16 6
36 17 10
36 18 5
36 19 1
36 20 8
36 21 1
36 22 5
36 23 1
36 24 13
36 25 11
36 26 1
36 27 6
36 28 13
36 29 4
36 30 11
36 31 1
36 32 6
36 33 12
36 34 9
36 35 4
37 0 8
37 1 11
37 2 12
37 3 12
37 4 10
37 5 10
37 6 13
37 7 13
37 8 2
37 9 7
37 10 6
37 11 3
37 12 12
37 13 3
37 14 8
37 15 6
37 16 2
37 17 5
37 18 9
37 19 2
37 20 4
37 21 10
37 22 7
37 23 6
37 24 4
37 25 4
37 26 3
37 27 7
37 28 13
37 29 12
37 30 6
37 31 10
37 32 5
37 33 12
37 34 2
37 35 6
37 36 10
38 0 4
38 1 3
38 2 3
38 3 12
38 4 11
38 5 7
38 6 5
38 7 11
38 8 10
38 9 9
38 10 1
38 11 11
38 12 2
38 13 5
38 14 6
38 15 7
38 16 12
38 17 5
38 18 4
38 19 6
38 20 8
38 21 2
38 22 11
38 23 8
38 24 2
38 25 13
38 26 13
38 27 4
38 28 12
38 29 9
38 30 10
38 31 8
38 32 1
38 33 9
38 34 11
38 35 12
38 36 1
38 37 1
39 0 3
39 1 11
39 2 2
39 3 1
39 4 10
39 5 13
39 6 2
39 7 13
39 8 8
39 9 13
39 10 6
39 11 13
39 12 4
39 13 6
39 14 12
39 15 11
39 16 5
39 17 13
39 18 13
39 19 13
39 20 10
39 21 3
39 22 5
39 23 9
39 24 3
39 25 7
39 26 12
39 27 7
39 28 6
39 29 10
39 30 4
39 31 9
39 32 1
39 33 10
39 34 11
39 35 1
39 36 12
39 37 12
39 38 2
40 0 13
40 1 4
40 2 11
40 3 11
40 4 4
40 5 8
40 6 3
40 7 8
40 8 12
40 9 1
40 10 7
40 11 11
40 12 9
40 13 1
40 14 7
40 15 6
40 16 2
40 17 5
40 18 10
40 19 6
40 20 11
40 21 10
40 22 8
40 23 5
40 24 1
40 25 5
40 26 4
40 27 2
40 28 1
40 29 5
40 30 4
40 31 6
40 32 8
40 33 2
40 34 8
40 35 3
40 36 2
40 37 13
40 38 6
40 39 5
41 0 11
41 1 2
41 2 2
41 3 6
41 4 1
41 5 4
41 6 10
41 7 1
41 8 11
41 9 5
41 10 2
41 11 5
41 12 8
41 13 11
41 14 12
41 15 12
41 16 1
41 17 1
41 18 1
41 19 10
41 20 10
41 21 10
41 22 5
41 23 13
41 24 5
41 25 4
41 26 4
41 27 6
41 28 7
41 29 11
41 30 3
41 31 11
41 32 11
41 33 9
41 34 2
41 35 2
41 36 11
41 37 6
41 38 5
41 39 12
41 40 13
42 0 8
42 1 11
42 2 1
42 3 2
42 4 12
42 5 11
42 6 11
42 7 13
42 8 5
42 9 9
42 10 3
42 11 6
42 12 5
42 13 2
42 14 4
42 15 8
42 16 13
42 17 5
42 18 6
42 19 10
42 20 4
42 21 2
42 22 3
42 23 1
42 24 7
42 25 6
42 26 7
42 27 12
42 28 11
42 29 5
42 30 11
42 31 11
42 32 9
42 33 9
42 34 9
42 35 9
42 36 2
42 37 5
42 38 12
42 39 12
42 40 6
42 41 13
43 0 13
43 1 9
43 2 8
43 3 3
43 4 9
43 5 7
43 6 6
43 7 2
43 8 12
43 9 4
43 10 3
43 11 1
43 12 3
43 13 1
43 14 5
43 15 10
43 16 3
43 17 3
43 18 1
43 19 10
43 20 10
43 21 4
43 22 9
43 23 5
43 24 4
43 25 8
43 26 13
43 27 6
43 28 9
43 29 4
43 30 12
43 31 12
43 32 8
43 33 2
43 34 12
43 35 5
43 36 12
43 37 3
43 38 2
43 39 7
43 40 3
43 41 4
43 42 10
44 0 7
44 1 5
44 2 6
44 3 4
44 4 9
44 5 7
44 6 2
44 7 3
44 8 6
44 9 2
44 10 9
44 11 1
44 12 6
44 13 13
44 14 1
44 15 3
44 16 13
44 17 12
44 18 12
44 19 9
44 20 3
44 21 8
44 22 3
44 23 3
44 24 7
44 25 4
44 26 3
44 27 10
44 28 11
44 29 9
44 30 9
44 31 1
44 32 7
44 33 9
44 34 5
44 35 6
44 36 10
44 37 1
44 38 6
44 39 12
44 40 10
44 41 10
44 42 3
44 43 3
45 0 8
45 1 2
45 2 11
45 3 4
45 4 5
45 5 2
45 6 2
45 7 7
45 8 2
45 9 5
45 10 6
45 11 9
45 12 10
45 13 2
45 14 3
45 15 11
45 16 5
45 17 6
45 18 1
45 19 13
45 20 2
45 21 7
45 22 10
45 23 9
45 24 2
45 25 6
45 26 8
45 27 11
45 28 4
45 29 2
45 30 13
45 31 1
45 32 12
45 33 5
45 34 12
45 35 2
45 36 1
45 37 9
45 38 12
45 39 9
45 40 10
45 41 5
45 42 7
45 43 2
45 44 9
46 0 9
46 1 5
46 2 5
46 3 10
46 4 4
46 5 3
46 6 6
46 7 2
46 8 3
46 9 1
46 10 2
46 11 12
46 12 9
46 13 13
46 14 2
46 15 2
46 16 10
46 17 1
46 18 1
46 19 10
46 20 2
46 21 13
46 22 12
46 23 7
46 24 13
46 25 6
46 26 10
46 27 1
46 28 2
46 29 6
46 30 4
46 31 8
46 32 4
46 33 9
46 34 4
46 35 3
46 36 12
46 37 13
46 38 6
46 39 10
46 40 9
46 41 12
46 42 1
46 43 13
46 44 5
46 45 9
47 0 7
47 1 4
47 2 11
47 3 13
47 4 4
47 5 2
47 6 1
47 7 5
47 8 3
47 9 8
47 10 7
47 11 4
47 12 13
47 13 5
47 14 9
47 15 1
47 16 11
47 17 6
47 18 9
47 19 9
47 20 6
47 21 8
47 22 10
47 23 8
47 24 7
47 25 3
47 26 11
47 27 13
47 28 3
47 29 11
47 30 11
47 31 2
47 32 9
47 33 4
47 34 11
47 35 5
47 36 7
47 37 9
47 38 3
47 39 6
47 40 6
47 41 2
47 42 2
47 43 11
47 44 3
47 45 12
47 46 5
48 0 7
48 1 2
48 2 1
48 3 13
48 4 2
48 5 1
48 6 7
48 7 12
48 8 10
48 9 7
48 10 8
48 11 10
48 12 13
48 13 12
48 14 13
48 15 13
48 16 12
48 17 12
48 18 11
48 19 10
48 20 8
48 21 12
48 22 3
48 23 3
48 24 8
48 25 11
48 26 1
48 27 12
48 28 5
48 29 6
48 30 9
48 31 6
48 32 2
48 33 4
48 34 7
48 35 2
48 36 10
48 37 6
48 38 8
48 39 3
48 40 10
48 41 2
48 42 2
48 43 11
48 44 4
48 45 4
48 46 9
48 47 2
49 0 1
49 1 11
49 2 10
49 3 7
49 4 8
49 5 5
49 6 3
49 7 1
49 8 5
49 9 6
49 10 6
49 11 13
49 12 13
49 13 6
49 14 2
49 15 10
49 16 1
49 17 6
49 18 1
49 19 6
49 20 8
49 21 7
49 22 9
49 23 8
49 24 10
49 25 8
49 26 3
49 27 11
49 28 11
49 29 2
49 30 8
49 31 5
49 32 3
49 33 1
49 34 3
49 35 2
49 36 5
49 37 4
49 38 8
49 39 12
49 40 9
49 41 8
49 42 9
49 43 10
49 44 13
49 45 7
49 46 7
49 47 5
49 48 8
50 0 8
50 1 3
50 2 9
50 3 2
50 4 9
50 5 10
50 6 2
50 7 10
50 8 5
50 9 12
50 10 3
50 11 1
50 12 9
50 13 7
50 14 4
50 15 10
50 16 9
50 17 11
50 18 2
50 19 9
50 20 6
50 21 10
50 22 8
50 23 1
50 24 10
50 25 11
50 26 1
50 27 13
50 28 13
50 29 11
50 30 3
50 31 7
50 32 1
50 33 3
50 34 4
50 35 6
50 36 6
50 37 4
50 38 1
50 39 13
50 40 11
50 41 9
50 42 1
50 43 6
50 44 11
50 45 13
50 46 11
50 47 12
50 48 5
50 49 10
51 0 1
51 1 8
51 2 5
51 3 4
51 4 5
51 5 9
51 6 2
51 7 5
51 8 4
51 9 1
51 10 1
51 11 5
51 12 9
51 13 11
51 14 6
51 15 11
51 16 2
51 17 3
51 18 11
51 19 6
51 20 3
51 21 12
51 22 11
51 23 9
51 24 8
51 25 7
51 26 5
51 27 10
51 28 10
51 29 1
51 30 7
51 31 3
51 32 6
51 33 7
51 34 3
51 35 10
51 36 5
51 37 6
51 38 3
51 39 10
51 40 7
51 41 13
51 42 5
51 43 5
51 44 8
51 45 6
51 46 13
51 47 11
51 48 6
51 49 4
51 50 5
52 0 13
52 1 13
52 2 5
52 3 5
52 4 2
52 5 9
52 6 12
52 7 3
52 8 11
52 9 3
52 10 9
52 11 2
52 12 13
52 13 3
52 14 3
52 15 3
52 16 5
52 17 9
52 18 7
52 19 6
52 20 7
52 21 12
52 22 1
52 23 7
52 24 10
52 25 5
52 26 11
52 27 5
52 28 12
52 29 2
52 30 4
52 31 7
52 32 8
52 33 6
52 34 11
52 35 6
52 36 3
52 37 13
52 38 9
52 39 3
52 40 11
52 41 10
52 42 9
52 43 7
52 44 2
52 45 6
52 46 2
52 47 5
52 48 5
52 49 8
52 50 13
52 51 2
53 0 13
53 1 5
53 2 10
53 3 13
53 4 9
53 5 2
53 6 7
53 7 6
53 8 1
53 9 7
53 10 5
53 11 5
53 12 4
53 13 10
53 14 6
53 15 5
53 16 5
53 17 13
53 18 3
53 19 11
53 20 11
53 21 9
53 22 6
53 23 12
53 24 13
53 25 13
53 26 8
53 27 6
53 28 3
53 29 3
53 30 5
53 31 9
53 32 2
53 33 6
53 34 7
53 35 9
53 36 2
53 37 13
53 38 3
53 39 10
53 40 7
53 41 3
53 42 9
53 43 6
53 44 12
53 45 1
53 46 3
53 47 10
53 48 5
53 49 1
53 50 12
53 51 9
53 52 9
54 0 9
54 1 1
54 2 1
54 3 4
54 4 3
54 5 10
54 6 13
54 7 8
54 8 9
54 9 7
54 10 8
54 11 3
54 12 8
54 13 13
54 14 5
54 15 13
54 16 13
54 17 8
54 18 2
54 19 11
54 20 7
54 21 3
54 22 3
54 23 13
54 24 9
54 25 5
54 26 11
54 27 7
54 28 3
54 29 7
54 30 5
54 31 1
54 32 10
54 33 6
54 34 13
54 35 5
54 36 7
54 37 13
54 38 9
54 39 9
54 40 2
54 41 1
54 42 13
54 43 1
54 44 3
54 45 4
54 46 11
54 47 13
54 48 8
54 49 1
54 50 9
54 51 8
54 52 1
54 53 6
55 0 8
55 1 6
55 2 7
55 3 2
55 4 6
55 5 10
55 6 4
55 7 2
55 8 1
55 9 13
55 10 8
55 11 8
55 12 7
55 13 13
55 14 1
55 15 11
55 16 7
55 17 3
55 18 10
55 19 4
55 20 4
55 21 4
55 22 12
55 23 13
55 24 1
55 25 1
55 26 7
55 27 6
55 28 13
55 29 10
55 30 9
55 31 10
55 32 1
55 33 11
55 34 10
55 35 2
55 36 8
55 37 12
55 38 12
55 39 12
55 40 12
55 41 6
55 42 6
55 43 7
55 44 1
55 45 3
55 46 7
55 47 4
55 48 8
55 49 9
55 50 7
55 51 7
55 52 11
55 53 6
55 54 7
56 0 6
56 1 13
56 2 7
56 3 2
56 4 3
56 5 1
56 6 8
56 7 13
56 8 8
56 9 12
56 10 11
56 11 8
56 12 9
56 13 11
56 14 11
56 15 4
56 16 1
56 17 3
56 18 13
56 19 7
56 20 7
56 21 4
56 22 12
56 23 7
56 24 12
56 25 10
56 26 10
56 27 7
56 28 2
56 29 8
56 30 3
56 31 9
56 32 12
56 33 5
56 34 2
56 35 5
56 36 13
56 37 1
56 38 3
56 39 13
56 40 6
56 41 13
56 42 10
56 43 10
56 44 6
56 45 6
56 46 5
56 47 8
56 48 6
56 49 8
56 50 8
56 51 1
56 52 6
56 53 7
56 54 1
56 55 7
57 0 12
57 1 4
57 2 10
57 3 11
57 4 9
57 5 11
57 6 5
57 7 4
57 8 8
57 9 3
57 10 2
57 11 2
57 12 1
57 13 9
57 14 2
57 15 8
57 16 2
57 17 6
57 18 4
57 19 5
57 20 4
57 21 8
57 22 12
57 23 9
57 24 7
57 25 12
57 26 12
57 27 6
57 28 11
57 29 10
57 30 2
57 31 4
57 32 8
57 33 10
57 34 9
57 35 1
57 36 3
57 37 8
57 38 2
57 39 5
57 40 11
57 41 10
57 42 10
57 43 2
57 44 3
57 45 12
57 46 3
57 47 9
57 48 13
57 49 5
57 50 6
57 51 3
57 52 10
57 53 4
57 54 2
57 55 10
57 56 5
58 0 12
58 1 8
58 2 4
58 3 10
58 4 1
58 5 2
58 6 9
58 7 2
58 8 3
58 9 7
58 10 2
58 11 5
58 12 9
58 13 4
58 14 8
58 15 4
58 16 7
58 17 12
58 18 7
58 19 7
58 20 12
58 21 13
58 22 4
58 23 11
58 24 5
58 25 9
58 26 1
58 27 8
58 28 11
58 29 5
58 30 4
58 31 2
58 32 9
58 33 4
58 34 13
58 35 5
58 36 6
58 37 7
58 38 4
58 39 11
58 40 2
58 41 2
58 42 12
58 43 5
58 44 13
58 45 4
58 46 2
58 47 4
58 48 8
58 49 12
58 50 8
58 51 5
58 52 5
58 53 10
58 54 8
58 55 7
58 56 5
58 57 13
59 0 6
59 1 1
59 2 9
59 3 10
59 4 3
59 5 11
59 6 6
59 7 8
59 8 4
59 9 13
59 10 3
59 11 10
59 12 13
59 13 8
59 14 3
59 15 13
59 16 11
59 17 6
59 18 5
59 19 6
59 20 13
59 21 8
59 22 13
59 23 1
59 24 3
59 25 1
59 26 3
59 27 6
59 28 5
59 29 7
59 30 1
59 31 4
59 32 3
59 33 7
59 34 13
59 35 4
59 36 11
59 37 12
59 38 7
59 39 9
59 40 13
59 41 13
59 42 12
59 43 3
59 44 10
59 45 8
59 46 9
59 47 4
59 48 5
59 49 10
59 50 2
59 51 1
59 52 13
59 53 11
59 54 4
59 55 3
59 56 9
59 57 8
59 58 6
